c FILE: i080-332

c SOURCE: From steinlib

c DESCRIPTION: Steinlib instance with 80 nodes and 160 edges.

p edge 80 160
e 1 8
e 1 35
e 1 45
e 1 69
e 1 72
e 1 75
e 1 77
e 2 17
e 2 28
e 3 30
e 3 60
e 3 70
e 4 26
e 4 29
e 4 53
e 4 71
e 5 68
e 6 16
e 6 30
e 6 42
e 6 50
e 6 62
e 6 66
e 6 78
e 7 10
e 7 18
e 7 21
e 7 59
e 8 34
e 8 64
e 9 32
e 9 41
e 9 49
e 9 80
e 10 17
e 10 75
e 11 20
e 11 37
e 12 37
e 12 49
e 12 77
e 13 14
e 13 39
e 13 43
e 13 53
e 13 73
e 14 45
e 14 47
e 14 73
e 15 50
e 15 53
e 16 21
e 16 28
e 16 32
e 16 40
e 16 45
e 16 54
e 17 72
e 18 19
e 18 51
e 18 60
e 18 64
e 19 23
e 19 46
e 19 76
e 19 77
e 20 27
e 20 31
e 20 41
e 20 52
e 20 55
e 20 80
e 21 56
e 22 27
e 22 34
e 24 38
e 24 40
e 24 45
e 24 52
e 24 55
e 25 28
e 25 40
e 25 61
e 25 66
e 25 75
e 26 34
e 26 36
e 26 44
e 26 54
e 26 73
e 27 53
e 28 63
e 29 44
e 29 45
e 29 64
e 29 71
e 30 56
e 30 74
e 31 36
e 31 50
e 31 62
e 31 78
e 32 34
e 33 70
e 34 74
e 34 76
e 35 77
e 36 40
e 36 49
e 36 78
e 37 74
e 37 79
e 38 42
e 38 53
e 38 63
e 38 77
e 39 72
e 39 77
e 40 78
e 41 71
e 41 72
e 42 64
e 42 67
e 44 45
e 45 77
e 46 60
e 47 53
e 47 57
e 47 69
e 48 68
e 49 56
e 49 59
e 50 73
e 51 55
e 52 64
e 52 71
e 52 75
e 53 72
e 54 79
e 55 74
e 57 80
e 58 63
e 59 67
e 60 74
e 61 64
e 61 72
e 62 65
e 62 71
e 62 77
e 63 69
e 67 79
e 68 69
e 68 74
e 69 76
e 69 79
e 71 72
e 72 74
e 72 76
e 72 80
e 75 78
